solution status: optimal solution found
objective value:                                    2
thing.waste_hole_y                                -25 	(obj:0)
thing.waste_hole_z                                -23 	(obj:0)
thing.bead_out_hole_y                             -20 	(obj:0)
thing.bead_out_hole_z                             -25 	(obj:0)
thing.collect_hole_y                              -23 	(obj:0)
thing.collect_hole_z                              -24 	(obj:0)
thing.thing.chamber[2].thingy.v12_y                  -23 	(obj:0)
thing.thing.chamber[2].thingy.v12_z                  -23 	(obj:0)
thing.thing.chamber[2].thingy.v13_y                  -23 	(obj:0)
thing.thing.chamber[2].thingy.v13_z                  -25 	(obj:0)
thing.cell_out_hole_y                             -25 	(obj:0)
thing.cell_out_hole_z                             -21 	(obj:0)
thing.buffer_out_hole_y                           -24 	(obj:0)
thing.buffer_out_hole_z                           -20 	(obj:0)
thing.thing.chamber[1].thingy.p1_y                  -24 	(obj:0)
thing.thing.chamber[1].thingy.p1_z                  -21 	(obj:0)
thing.thing.chamber[2].thingy.p1_y                  -22 	(obj:0)
thing.thing.chamber[2].thingy.p1_z                  -21 	(obj:0)
thing.collect_ctrl_hole_y                         -22 	(obj:0)
thing.collect_ctrl_hole_z                         -25 	(obj:0)
thing.dead_end_ctrl_hole_y                        -25 	(obj:0)
thing.dead_end_ctrl_hole_z                        -20 	(obj:0)
thing.waste_ctrl_hole_y                           -25 	(obj:0)
thing.waste_ctrl_hole_z                           -25 	(obj:0)
thing.bead_trap_flush_hole_y                      -22 	(obj:0)
thing.bead_trap_flush_hole_z                      -24 	(obj:0)
thing.dead_end_flush_hole_y                       -21 	(obj:0)
thing.dead_end_flush_hole_z                       -25 	(obj:0)
thing.pump1_hole_y                                -24 	(obj:0)
thing.pump1_hole_z                                -22 	(obj:0)
thing.loop_exit_flush_hole_y                      -21 	(obj:0)
thing.loop_exit_flush_hole_z                      -24 	(obj:0)
thing.pump_flush0_hole_y                          -21 	(obj:0)
thing.pump_flush0_hole_z                          -22 	(obj:0)
thing.thing.chamber[2].thingy.p2_y                  -22 	(obj:0)
thing.thing.chamber[2].thingy.p2_z                  -23 	(obj:0)
x47                                                 1 	(obj:1)
x53                                                 1 	(obj:1)
